HUN,8,6,391
2,20,0,11,1,10,4,18,5,5,3,26
2,30,1,20,0,21,4,17,3,10,5,16
2,2,0,14,1,13,5,4,4,30,3,10
0,5,2,13,1,18,5,7,3,24,4,14
2,1,1,20,0,6,3,25,5,24,4,16
1,10,0,16,2,20,4,23,5,19,3,20
1,25,0,12,2,26,4,23,3,1,5,3
1,7,0,20,2,15,5,26,3,10,4,11
